NAME : eil76.579300.tour
COMMENT : Cost = 0_579300
COMMENT : Found by LKH [Keld Helsgaun] Thu Nov 16 19:18:35 2017
TYPE : TOUR
DIMENSION : 78
TOUR_SECTION
1
63
16
3
44
32
9
39
72
31
55
25
50
18
24
49
23
56
41
64
42
43
77
22
61
21
47
36
69
71
60
70
20
37
5
15
57
13
54
19
8
46
34
52
27
45
29
48
30
74
28
62
78
33
6
51
17
40
12
58
10
38
65
66
11
59
14
53
35
7
26
67
76
75
4
68
2
73
-1
EOF
